<number of tasks>
50

<cycle time>
1000

<order strength>
0.596


<task times>
1 209
2 122
3 222
4 64
5 67
6 284
7 47
8 154
9 340
10 28
11 193
12 226
13 442
14 375
15 199
16 147
17 49
18 534
19 347
20 321
21 123
22 132
23 77
24 148
25 525
26 340
27 163
28 136
29 61
30 54
31 215
32 23
33 29
34 56
35 400
36 78
37 124
38 556
39 311
40 506
41 41
42 165
43 546
44 115
45 368
46 500
47 239
48 111
49 129
50 99

<precedence relations>
1,8
1,31
2,6
2,9
3,6
3,7
3,31
4,6
4,7
4,8
5,10
5,11
6,14
6,45
7,14
7,26
8,14
8,43
9,13
9,14
9,15
9,22
10,12
10,15
11,12
11,20
12,17
12,23
12,28
13,18
14,16
14,18
15,19
16,25
16,28
17,21
17,22
18,20
18,41
19,20
19,21
19,23
20,27
20,28
20,29
21,24
21,25
22,24
22,25
22,26
23,25
24,29
24,30
24,31
24,33
25,47
26,36
26,42
27,30
27,44
28,32
28,33
28,35
29,35
29,38
30,37
30,38
30,42
30,49
31,36
31,39
32,34
32,50
33,34
33,37
34,42
35,39
36,40
36,41
36,43
37,39
39,47
40,45
41,44
41,47
43,45
44,46
44,48
44,49
45,46
45,47
45,50

<end>
